NAME: sensor_network_100
TYPE: TSP
COMMENT: 100 sensor node locations for GradySim simulation
DIMENSION: 100
EDGE_WEIGHT_TYPE: EUC_2D
NODE_COORD_SECTION
1 0.0 0.0
2 10.0 0.0
3 20.0 0.0
4 30.0 0.0
5 40.0 0.0
6 50.0 0.0
7 60.0 0.0
8 70.0 0.0
9 80.0 0.0
10 90.0 0.0
11 0.0 10.0
12 10.0 10.0
13 20.0 10.0
14 30.0 10.0
15 40.0 10.0
16 50.0 10.0
17 60.0 10.0
18 70.0 10.0
19 80.0 10.0
20 90.0 10.0
21 0.0 20.0
22 10.0 20.0
23 20.0 20.0
24 30.0 20.0
25 40.0 20.0
26 50.0 20.0
27 60.0 20.0
28 70.0 20.0
29 80.0 20.0
30 90.0 20.0
31 0.0 30.0
32 10.0 30.0
33 20.0 30.0
34 30.0 30.0
35 40.0 30.0
36 50.0 30.0
37 60.0 30.0
38 70.0 30.0
39 80.0 30.0
40 90.0 30.0
41 0.0 40.0
42 10.0 40.0
43 20.0 40.0
44 30.0 40.0
45 40.0 40.0
46 50.0 40.0
47 60.0 40.0
48 70.0 40.0
49 80.0 40.0
50 90.0 40.0
51 0.0 50.0
52 10.0 50.0
53 20.0 50.0
54 30.0 50.0
55 40.0 50.0
56 50.0 50.0
57 60.0 50.0
58 70.0 50.0
59 80.0 50.0
60 90.0 50.0
61 0.0 60.0
62 10.0 60.0
63 20.0 60.0
64 30.0 60.0
65 40.0 60.0
66 50.0 60.0
67 60.0 60.0
68 70.0 60.0
69 80.0 60.0
70 90.0 60.0
71 0.0 70.0
72 10.0 70.0
73 20.0 70.0
74 30.0 70.0
75 40.0 70.0
76 50.0 70.0
77 60.0 70.0
78 70.0 70.0
79 80.0 70.0
80 90.0 70.0
81 0.0 80.0
82 10.0 80.0
83 20.0 80.0
84 30.0 80.0
85 40.0 80.0
86 50.0 80.0
87 60.0 80.0
88 70.0 80.0
89 80.0 80.0
90 90.0 80.0
91 0.0 90.0
92 10.0 90.0
93 20.0 90.0
94 30.0 90.0
95 40.0 90.0
96 50.0 90.0
97 60.0 90.0
98 70.0 90.0
99 80.0 90.0
100 90.0 90.0
EOF